(declare-const term_to_project_onto0 Real)
(declare-const |y'| Int)
(declare-const z Int)
(declare-const k Int)
(declare-const uninterp0 Int)
(declare-const y Int)
(declare-const |c'| Int)
(declare-const |x'| Int)
(declare-const x Int)
(declare-const c Int)
(declare-const uninterp Int)
(declare-const term_to_project_onto Real)
(declare-const term_to_project_onto1 Real)
(assert (and (<= (+ (- c) 1) 0) (<= (+ (- k) 1) 0) (<= (+ (- z) 1) 0)
               (= (+ (- y) (- x) uninterp 1) 0) (<= (+ (- k) c 1) 0)
               (= (+ |c'| (- c) -1) 0) (= (+ |y'| (- uninterp0)) 0)
               (= (+ |x'| (- uninterp) -1) 0) (<= y uninterp0)
               (<= x uninterp) (= term_to_project_onto1 (+ |x'| (- x)))
               (= term_to_project_onto0 (+ |y'| (- y)))
               (= term_to_project_onto (+ |c'| (- c)))))
(check-sat)
